nodes = 75;
edges = 133;
starts = [1, 2, 2, 2, 3, 4, 4, 5, 6, 6, 7, 8, 9, 10, 11, 11, 12, 12, 13, 13, 13, 14, 15, 15, 16, 16, 17, 18, 18, 18, 19, 20, 21, 21, 21, 22, 22, 23, 23, 23, 24, 24, 25, 26, 27, 28, 29, 29, 29, 30, 31, 31, 31, 32, 33, 33, 33, 34, 34, 34, 35, 35, 36, 37, 37, 37, 38, 39, 39, 39, 40, 40, 41, 41, 42, 43, 43, 44, 45, 45, 45, 46, 46, 47, 48, 49, 49, 50, 51, 51, 51, 52, 53, 54, 55, 56, 56, 57, 57, 57, 58, 59, 59, 59, 60, 61, 61, 62, 62, 62, 63, 64, 65, 65, 66, 66, 67, 67, 68, 69, 69, 70, 70, 70, 71, 72, 72, 72, 73, 73, 74, 75, 75];
ends = [47, 18, 20, 70, 6, 39, 60, 41, 23, 71, 22, 21, 20, 11, 14, 35, 17, 28, 36, 37, 67, 32, 26, 50, 15, 52, 45, 2, 29, 42, 14, 42, 8, 24, 45, 16, 26, 6, 38, 72, 21, 27, 7, 34, 28, 43, 18, 51, 53, 62, 13, 25, 55, 10, 58, 69, 72, 7, 22, 31, 19, 44, 37, 13, 31, 57, 3, 4, 61, 72, 48, 62, 49, 52, 53, 55, 75, 45, 17, 21, 27, 39, 58, 56, 12, 15, 50, 67, 29, 60, 64, 5, 64, 38, 46, 66, 73, 37, 59, 74, 40, 57, 70, 74, 51, 54, 63, 30, 66, 73, 54, 4, 23, 33, 48, 62, 13, 34, 25, 1, 33, 2, 9, 59, 65, 23, 33, 39, 1, 69, 9, 31, 68];
weights = [1, 1, 1, 1, 1, 1, 1, 1, 1, 1, 1, 1, 1, 1, 1, 1, 1, 1, 1, 1, 1, 1, 1, 1, 1, 1, 1, 1, 1, 1, 1, 1, 1, 1, 1, 1, 1, 1, 1, 1, 1, 1, 1, 1, 1, 1, 1, 1, 1, 1, 1, 1, 1, 1, 1, 1, 1, 1, 1, 1, 1, 1, 1, 1, 1, 1, 1, 1, 1, 1, 1, 1, 1, 1, 1, 1, 1, 1, 1, 1, 1, 1, 1, 1, 1, 1, 1, 1, 1, 1, 1, 1, 1, 1, 1, 1, 1, 1, 1, 1, 1, 1, 1, 1, 1, 1, 1, 1, 1, 1, 1, 1, 1, 1, 1, 1, 1, 1, 1, 1, 1, 1, 1, 1, 1, 1, 1, 1, 1, 1, 1, 1, 1];
start = 32;
end= 9;
tasks = 2;
task = array2d(1..tasks, 1..nodes, [0, 0, 0, 0, 0, 0, 0, 1, 0, 0, 0, 0, 0, 0, 0, 0, 0, 0, 0, 0, 0, 0, 0, 1, 1, 0, 0, 0, 0, 0, 0, 0, 0, 0, 0, 0, 0, 0, 1, 0, 0, 0, 0, 0, 0, 0, 0, 0, 0, 0, 0, 0, 1, 0, 0, 0, 0, 0, 0, 0, 0, 0, 0, 1, 0, 0, 0, 0, 0, 0, 1, 0, 0, 0, 0, 0, 0, 0, 0, 0, 0, 0, 0, 0, 0, 0, 0, 0, 0, 1, 0, 0, 0, 0, 0, 0, 1, 0, 0, 0, 0, 0, 0, 0, 0, 0, 0, 0, 0, 0, 0, 0, 0, 0, 0, 0, 1, 0, 0, 0, 0, 0, 0, 0, 0, 0, 0, 0, 0, 0, 0, 0, 0, 0, 0, 0, 0, 0, 0, 1, 0, 1, 0, 0, 0, 0, 0, 0, 1, 1]);
